Traveling Salesman Problem/TSP_generados/Aleatorio1620390939_9.tsp
NAME: Aleatorio1620390939_9.tsp
COMMENT: Randomly generated scenario
TYPE: TSP
DIMENSION: 9
EDGE_WEIGHT_TYPE: ATT
NODE_COORD_SECTION
1 47.21 41.18
2 0.94 3.36
3 5.94 10.31
4 22.25 39.48
5 20.78 41.24
6 25.46 2.83
7 46.17 27.31
8 37.63 10.26
9 7.04 37.24
