Traveling Salesman Problem/TSP_generados/Aleatorio1620390939_9.opt.tour
NAME: Aleatorio1620390939_9.opt.tour
COMMENT: Optimal solution for Aleatorio1620390939_9 (148.89818414619498)
TYPE: TOUR
DIMENSION: 9
TOUR_SECTION
1 7 8 6 2 3 9 5 4
-1
EOF
